problems/csplib-prob015/SchursLemma-models/noch/O2/lingeling/model_1_1-3-15-solution000001.solution
language Essence 1.3

letting boxes be partition({1, 3, 7}, {2, 4, 5, 14, 15}, {6, 8, 9, 10, 11, 12, 13})
